17	4
12	14	12	12	
0	0	0	0	0	3	2	3	4	
2	0	0	0	9	3	7	17	17	
5	0	0	0	1	3	5	6	10	
4	0	0	7	0	3	8	10	17	
6	0	0	0	8	3	7	9	16	
225	0	2	0	0	3	11	13	15	
200	0	3	0	0	3	13	17	17	
25	2	0	0	0	3	12	13	16	
225	0	0	2	0	3	11	17	17	
125	0	0	0	6	3	14	17	17	
250	0	9	0	0	3	14	17	17	
225	0	0	9	0	2	17	17	
6	2	0	0	0	2	14	17	
7	0	0	7	0	1	17	
1	10	0	0	0	3	16	17	17	
5	0	6	0	0	3	17	17	17	
0	0	0	0	0	0	
